p cnf 275 2390
1 2 3 4 5 6 7 8 9 10 11 0
12 13 14 15 16 17 18 19 20 21 22 0
23 24 25 26 27 28 29 30 31 32 33 0
34 35 36 37 38 39 40 41 42 43 44 0
45 46 47 48 49 50 51 52 53 54 55 0
56 57 58 59 60 61 62 63 64 65 66 0
67 68 69 70 71 72 73 74 75 76 77 0
78 79 80 81 82 83 84 85 86 87 88 0
89 90 91 92 93 94 95 96 97 98 99 0
100 101 102 103 104 105 106 107 108 109 110 0
111 112 113 114 115 116 117 118 119 120 121 0
122 123 124 125 126 127 128 129 130 131 132 0
133 134 135 136 137 138 139 140 141 142 143 0
144 145 146 147 148 149 150 151 152 153 154 0
155 156 157 158 159 160 161 162 163 164 165 0
166 167 168 169 170 171 172 173 174 175 176 0
177 178 179 180 181 182 183 184 185 186 187 0
188 189 190 191 192 193 194 195 196 197 198 0
199 200 201 202 203 204 205 206 207 208 209 0
210 211 212 213 214 215 216 217 218 219 220 0
221 222 223 224 225 226 227 228 229 230 231 0
232 233 234 235 236 237 238 239 240 241 242 0
243 244 245 246 247 248 249 250 251 252 253 0
254 255 256 257 258 259 260 261 262 263 264 0
265 266 267 268 269 270 271 272 273 274 275 0
-1 -2 0
-1 -3 0
-1 -4 0
-1 -5 0
-1 -6 0
-1 -7 0
-1 -8 0
-1 -9 0
-1 -10 0
-1 -11 0
-2 -3 0
-2 -4 0
-2 -5 0
-2 -6 0
-2 -7 0
-2 -8 0
-2 -9 0
-2 -10 0
-2 -11 0
-3 -4 0
-3 -5 0
-3 -6 0
-3 -7 0
-3 -8 0
-3 -9 0
-3 -10 0
-3 -11 0
-4 -5 0
-4 -6 0
-4 -7 0
-4 -8 0
-4 -9 0
-4 -10 0
-4 -11 0
-5 -6 0
-5 -7 0
-5 -8 0
-5 -9 0
-5 -10 0
-5 -11 0
-6 -7 0
-6 -8 0
-6 -9 0
-6 -10 0
-6 -11 0
-7 -8 0
-7 -9 0
-7 -10 0
-7 -11 0
-8 -9 0
-8 -10 0
-8 -11 0
-9 -10 0
-9 -11 0
-10 -11 0
-12 -13 0
-12 -14 0
-12 -15 0
-12 -16 0
-12 -17 0
-12 -18 0
-12 -19 0
-12 -20 0
-12 -21 0
-12 -22 0
-13 -14 0
-13 -15 0
-13 -16 0
-13 -17 0
-13 -18 0
-13 -19 0
-13 -20 0
-13 -21 0
-13 -22 0
-14 -15 0
-14 -16 0
-14 -17 0
-14 -18 0
-14 -19 0
-14 -20 0
-14 -21 0
-14 -22 0
-15 -16 0
-15 -17 0
-15 -18 0
-15 -19 0
-15 -20 0
-15 -21 0
-15 -22 0
-16 -17 0
-16 -18 0
-16 -19 0
-16 -20 0
-16 -21 0
-16 -22 0
-17 -18 0
-17 -19 0
-17 -20 0
-17 -21 0
-17 -22 0
-18 -19 0
-18 -20 0
-18 -21 0
-18 -22 0
-19 -20 0
-19 -21 0
-19 -22 0
-20 -21 0
-20 -22 0
-21 -22 0
-23 -24 0
-23 -25 0
-23 -26 0
-23 -27 0
-23 -28 0
-23 -29 0
-23 -30 0
-23 -31 0
-23 -32 0
-23 -33 0
-24 -25 0
-24 -26 0
-24 -27 0
-24 -28 0
-24 -29 0
-24 -30 0
-24 -31 0
-24 -32 0
-24 -33 0
-25 -26 0
-25 -27 0
-25 -28 0
-25 -29 0
-25 -30 0
-25 -31 0
-25 -32 0
-25 -33 0
-26 -27 0
-26 -28 0
-26 -29 0
-26 -30 0
-26 -31 0
-26 -32 0
-26 -33 0
-27 -28 0
-27 -29 0
-27 -30 0
-27 -31 0
-27 -32 0
-27 -33 0
-28 -29 0
-28 -30 0
-28 -31 0
-28 -32 0
-28 -33 0
-29 -30 0
-29 -31 0
-29 -32 0
-29 -33 0
-30 -31 0
-30 -32 0
-30 -33 0
-31 -32 0
-31 -33 0
-32 -33 0
-34 -35 0
-34 -36 0
-34 -37 0
-34 -38 0
-34 -39 0
-34 -40 0
-34 -41 0
-34 -42 0
-34 -43 0
-34 -44 0
-35 -36 0
-35 -37 0
-35 -38 0
-35 -39 0
-35 -40 0
-35 -41 0
-35 -42 0
-35 -43 0
-35 -44 0
-36 -37 0
-36 -38 0
-36 -39 0
-36 -40 0
-36 -41 0
-36 -42 0
-36 -43 0
-36 -44 0
-37 -38 0
-37 -39 0
-37 -40 0
-37 -41 0
-37 -42 0
-37 -43 0
-37 -44 0
-38 -39 0
-38 -40 0
-38 -41 0
-38 -42 0
-38 -43 0
-38 -44 0
-39 -40 0
-39 -41 0
-39 -42 0
-39 -43 0
-39 -44 0
-40 -41 0
-40 -42 0
-40 -43 0
-40 -44 0
-41 -42 0
-41 -43 0
-41 -44 0
-42 -43 0
-42 -44 0
-43 -44 0
-45 -46 0
-45 -47 0
-45 -48 0
-45 -49 0
-45 -50 0
-45 -51 0
-45 -52 0
-45 -53 0
-45 -54 0
-45 -55 0
-46 -47 0
-46 -48 0
-46 -49 0
-46 -50 0
-46 -51 0
-46 -52 0
-46 -53 0
-46 -54 0
-46 -55 0
-47 -48 0
-47 -49 0
-47 -50 0
-47 -51 0
-47 -52 0
-47 -53 0
-47 -54 0
-47 -55 0
-48 -49 0
-48 -50 0
-48 -51 0
-48 -52 0
-48 -53 0
-48 -54 0
-48 -55 0
-49 -50 0
-49 -51 0
-49 -52 0
-49 -53 0
-49 -54 0
-49 -55 0
-50 -51 0
-50 -52 0
-50 -53 0
-50 -54 0
-50 -55 0
-51 -52 0
-51 -53 0
-51 -54 0
-51 -55 0
-52 -53 0
-52 -54 0
-52 -55 0
-53 -54 0
-53 -55 0
-54 -55 0
-56 -57 0
-56 -58 0
-56 -59 0
-56 -60 0
-56 -61 0
-56 -62 0
-56 -63 0
-56 -64 0
-56 -65 0
-56 -66 0
-57 -58 0
-57 -59 0
-57 -60 0
-57 -61 0
-57 -62 0
-57 -63 0
-57 -64 0
-57 -65 0
-57 -66 0
-58 -59 0
-58 -60 0
-58 -61 0
-58 -62 0
-58 -63 0
-58 -64 0
-58 -65 0
-58 -66 0
-59 -60 0
-59 -61 0
-59 -62 0
-59 -63 0
-59 -64 0
-59 -65 0
-59 -66 0
-60 -61 0
-60 -62 0
-60 -63 0
-60 -64 0
-60 -65 0
-60 -66 0
-61 -62 0
-61 -63 0
-61 -64 0
-61 -65 0
-61 -66 0
-62 -63 0
-62 -64 0
-62 -65 0
-62 -66 0
-63 -64 0
-63 -65 0
-63 -66 0
-64 -65 0
-64 -66 0
-65 -66 0
-67 -68 0
-67 -69 0
-67 -70 0
-67 -71 0
-67 -72 0
-67 -73 0
-67 -74 0
-67 -75 0
-67 -76 0
-67 -77 0
-68 -69 0
-68 -70 0
-68 -71 0
-68 -72 0
-68 -73 0
-68 -74 0
-68 -75 0
-68 -76 0
-68 -77 0
-69 -70 0
-69 -71 0
-69 -72 0
-69 -73 0
-69 -74 0
-69 -75 0
-69 -76 0
-69 -77 0
-70 -71 0
-70 -72 0
-70 -73 0
-70 -74 0
-70 -75 0
-70 -76 0
-70 -77 0
-71 -72 0
-71 -73 0
-71 -74 0
-71 -75 0
-71 -76 0
-71 -77 0
-72 -73 0
-72 -74 0
-72 -75 0
-72 -76 0
-72 -77 0
-73 -74 0
-73 -75 0
-73 -76 0
-73 -77 0
-74 -75 0
-74 -76 0
-74 -77 0
-75 -76 0
-75 -77 0
-76 -77 0
-78 -79 0
-78 -80 0
-78 -81 0
-78 -82 0
-78 -83 0
-78 -84 0
-78 -85 0
-78 -86 0
-78 -87 0
-78 -88 0
-79 -80 0
-79 -81 0
-79 -82 0
-79 -83 0
-79 -84 0
-79 -85 0
-79 -86 0
-79 -87 0
-79 -88 0
-80 -81 0
-80 -82 0
-80 -83 0
-80 -84 0
-80 -85 0
-80 -86 0
-80 -87 0
-80 -88 0
-81 -82 0
-81 -83 0
-81 -84 0
-81 -85 0
-81 -86 0
-81 -87 0
-81 -88 0
-82 -83 0
-82 -84 0
-82 -85 0
-82 -86 0
-82 -87 0
-82 -88 0
-83 -84 0
-83 -85 0
-83 -86 0
-83 -87 0
-83 -88 0
-84 -85 0
-84 -86 0
-84 -87 0
-84 -88 0
-85 -86 0
-85 -87 0
-85 -88 0
-86 -87 0
-86 -88 0
-87 -88 0
-89 -90 0
-89 -91 0
-89 -92 0
-89 -93 0
-89 -94 0
-89 -95 0
-89 -96 0
-89 -97 0
-89 -98 0
-89 -99 0
-90 -91 0
-90 -92 0
-90 -93 0
-90 -94 0
-90 -95 0
-90 -96 0
-90 -97 0
-90 -98 0
-90 -99 0
-91 -92 0
-91 -93 0
-91 -94 0
-91 -95 0
-91 -96 0
-91 -97 0
-91 -98 0
-91 -99 0
-92 -93 0
-92 -94 0
-92 -95 0
-92 -96 0
-92 -97 0
-92 -98 0
-92 -99 0
-93 -94 0
-93 -95 0
-93 -96 0
-93 -97 0
-93 -98 0
-93 -99 0
-94 -95 0
-94 -96 0
-94 -97 0
-94 -98 0
-94 -99 0
-95 -96 0
-95 -97 0
-95 -98 0
-95 -99 0
-96 -97 0
-96 -98 0
-96 -99 0
-97 -98 0
-97 -99 0
-98 -99 0
-100 -101 0
-100 -102 0
-100 -103 0
-100 -104 0
-100 -105 0
-100 -106 0
-100 -107 0
-100 -108 0
-100 -109 0
-100 -110 0
-101 -102 0
-101 -103 0
-101 -104 0
-101 -105 0
-101 -106 0
-101 -107 0
-101 -108 0
-101 -109 0
-101 -110 0
-102 -103 0
-102 -104 0
-102 -105 0
-102 -106 0
-102 -107 0
-102 -108 0
-102 -109 0
-102 -110 0
-103 -104 0
-103 -105 0
-103 -106 0
-103 -107 0
-103 -108 0
-103 -109 0
-103 -110 0
-104 -105 0
-104 -106 0
-104 -107 0
-104 -108 0
-104 -109 0
-104 -110 0
-105 -106 0
-105 -107 0
-105 -108 0
-105 -109 0
-105 -110 0
-106 -107 0
-106 -108 0
-106 -109 0
-106 -110 0
-107 -108 0
-107 -109 0
-107 -110 0
-108 -109 0
-108 -110 0
-109 -110 0
-111 -112 0
-111 -113 0
-111 -114 0
-111 -115 0
-111 -116 0
-111 -117 0
-111 -118 0
-111 -119 0
-111 -120 0
-111 -121 0
-112 -113 0
-112 -114 0
-112 -115 0
-112 -116 0
-112 -117 0
-112 -118 0
-112 -119 0
-112 -120 0
-112 -121 0
-113 -114 0
-113 -115 0
-113 -116 0
-113 -117 0
-113 -118 0
-113 -119 0
-113 -120 0
-113 -121 0
-114 -115 0
-114 -116 0
-114 -117 0
-114 -118 0
-114 -119 0
-114 -120 0
-114 -121 0
-115 -116 0
-115 -117 0
-115 -118 0
-115 -119 0
-115 -120 0
-115 -121 0
-116 -117 0
-116 -118 0
-116 -119 0
-116 -120 0
-116 -121 0
-117 -118 0
-117 -119 0
-117 -120 0
-117 -121 0
-118 -119 0
-118 -120 0
-118 -121 0
-119 -120 0
-119 -121 0
-120 -121 0
-122 -123 0
-122 -124 0
-122 -125 0
-122 -126 0
-122 -127 0
-122 -128 0
-122 -129 0
-122 -130 0
-122 -131 0
-122 -132 0
-123 -124 0
-123 -125 0
-123 -126 0
-123 -127 0
-123 -128 0
-123 -129 0
-123 -130 0
-123 -131 0
-123 -132 0
-124 -125 0
-124 -126 0
-124 -127 0
-124 -128 0
-124 -129 0
-124 -130 0
-124 -131 0
-124 -132 0
-125 -126 0
-125 -127 0
-125 -128 0
-125 -129 0
-125 -130 0
-125 -131 0
-125 -132 0
-126 -127 0
-126 -128 0
-126 -129 0
-126 -130 0
-126 -131 0
-126 -132 0
-127 -128 0
-127 -129 0
-127 -130 0
-127 -131 0
-127 -132 0
-128 -129 0
-128 -130 0
-128 -131 0
-128 -132 0
-129 -130 0
-129 -131 0
-129 -132 0
-130 -131 0
-130 -132 0
-131 -132 0
-133 -134 0
-133 -135 0
-133 -136 0
-133 -137 0
-133 -138 0
-133 -139 0
-133 -140 0
-133 -141 0
-133 -142 0
-133 -143 0
-134 -135 0
-134 -136 0
-134 -137 0
-134 -138 0
-134 -139 0
-134 -140 0
-134 -141 0
-134 -142 0
-134 -143 0
-135 -136 0
-135 -137 0
-135 -138 0
-135 -139 0
-135 -140 0
-135 -141 0
-135 -142 0
-135 -143 0
-136 -137 0
-136 -138 0
-136 -139 0
-136 -140 0
-136 -141 0
-136 -142 0
-136 -143 0
-137 -138 0
-137 -139 0
-137 -140 0
-137 -141 0
-137 -142 0
-137 -143 0
-138 -139 0
-138 -140 0
-138 -141 0
-138 -142 0
-138 -143 0
-139 -140 0
-139 -141 0
-139 -142 0
-139 -143 0
-140 -141 0
-140 -142 0
-140 -143 0
-141 -142 0
-141 -143 0
-142 -143 0
-144 -145 0
-144 -146 0
-144 -147 0
-144 -148 0
-144 -149 0
-144 -150 0
-144 -151 0
-144 -152 0
-144 -153 0
-144 -154 0
-145 -146 0
-145 -147 0
-145 -148 0
-145 -149 0
-145 -150 0
-145 -151 0
-145 -152 0
-145 -153 0
-145 -154 0
-146 -147 0
-146 -148 0
-146 -149 0
-146 -150 0
-146 -151 0
-146 -152 0
-146 -153 0
-146 -154 0
-147 -148 0
-147 -149 0
-147 -150 0
-147 -151 0
-147 -152 0
-147 -153 0
-147 -154 0
-148 -149 0
-148 -150 0
-148 -151 0
-148 -152 0
-148 -153 0
-148 -154 0
-149 -150 0
-149 -151 0
-149 -152 0
-149 -153 0
-149 -154 0
-150 -151 0
-150 -152 0
-150 -153 0
-150 -154 0
-151 -152 0
-151 -153 0
-151 -154 0
-152 -153 0
-152 -154 0
-153 -154 0
-155 -156 0
-155 -157 0
-155 -158 0
-155 -159 0
-155 -160 0
-155 -161 0
-155 -162 0
-155 -163 0
-155 -164 0
-155 -165 0
-156 -157 0
-156 -158 0
-156 -159 0
-156 -160 0
-156 -161 0
-156 -162 0
-156 -163 0
-156 -164 0
-156 -165 0
-157 -158 0
-157 -159 0
-157 -160 0
-157 -161 0
-157 -162 0
-157 -163 0
-157 -164 0
-157 -165 0
-158 -159 0
-158 -160 0
-158 -161 0
-158 -162 0
-158 -163 0
-158 -164 0
-158 -165 0
-159 -160 0
-159 -161 0
-159 -162 0
-159 -163 0
-159 -164 0
-159 -165 0
-160 -161 0
-160 -162 0
-160 -163 0
-160 -164 0
-160 -165 0
-161 -162 0
-161 -163 0
-161 -164 0
-161 -165 0
-162 -163 0
-162 -164 0
-162 -165 0
-163 -164 0
-163 -165 0
-164 -165 0
-166 -167 0
-166 -168 0
-166 -169 0
-166 -170 0
-166 -171 0
-166 -172 0
-166 -173 0
-166 -174 0
-166 -175 0
-166 -176 0
-167 -168 0
-167 -169 0
-167 -170 0
-167 -171 0
-167 -172 0
-167 -173 0
-167 -174 0
-167 -175 0
-167 -176 0
-168 -169 0
-168 -170 0
-168 -171 0
-168 -172 0
-168 -173 0
-168 -174 0
-168 -175 0
-168 -176 0
-169 -170 0
-169 -171 0
-169 -172 0
-169 -173 0
-169 -174 0
-169 -175 0
-169 -176 0
-170 -171 0
-170 -172 0
-170 -173 0
-170 -174 0
-170 -175 0
-170 -176 0
-171 -172 0
-171 -173 0
-171 -174 0
-171 -175 0
-171 -176 0
-172 -173 0
-172 -174 0
-172 -175 0
-172 -176 0
-173 -174 0
-173 -175 0
-173 -176 0
-174 -175 0
-174 -176 0
-175 -176 0
-177 -178 0
-177 -179 0
-177 -180 0
-177 -181 0
-177 -182 0
-177 -183 0
-177 -184 0
-177 -185 0
-177 -186 0
-177 -187 0
-178 -179 0
-178 -180 0
-178 -181 0
-178 -182 0
-178 -183 0
-178 -184 0
-178 -185 0
-178 -186 0
-178 -187 0
-179 -180 0
-179 -181 0
-179 -182 0
-179 -183 0
-179 -184 0
-179 -185 0
-179 -186 0
-179 -187 0
-180 -181 0
-180 -182 0
-180 -183 0
-180 -184 0
-180 -185 0
-180 -186 0
-180 -187 0
-181 -182 0
-181 -183 0
-181 -184 0
-181 -185 0
-181 -186 0
-181 -187 0
-182 -183 0
-182 -184 0
-182 -185 0
-182 -186 0
-182 -187 0
-183 -184 0
-183 -185 0
-183 -186 0
-183 -187 0
-184 -185 0
-184 -186 0
-184 -187 0
-185 -186 0
-185 -187 0
-186 -187 0
-188 -189 0
-188 -190 0
-188 -191 0
-188 -192 0
-188 -193 0
-188 -194 0
-188 -195 0
-188 -196 0
-188 -197 0
-188 -198 0
-189 -190 0
-189 -191 0
-189 -192 0
-189 -193 0
-189 -194 0
-189 -195 0
-189 -196 0
-189 -197 0
-189 -198 0
-190 -191 0
-190 -192 0
-190 -193 0
-190 -194 0
-190 -195 0
-190 -196 0
-190 -197 0
-190 -198 0
-191 -192 0
-191 -193 0
-191 -194 0
-191 -195 0
-191 -196 0
-191 -197 0
-191 -198 0
-192 -193 0
-192 -194 0
-192 -195 0
-192 -196 0
-192 -197 0
-192 -198 0
-193 -194 0
-193 -195 0
-193 -196 0
-193 -197 0
-193 -198 0
-194 -195 0
-194 -196 0
-194 -197 0
-194 -198 0
-195 -196 0
-195 -197 0
-195 -198 0
-196 -197 0
-196 -198 0
-197 -198 0
-199 -200 0
-199 -201 0
-199 -202 0
-199 -203 0
-199 -204 0
-199 -205 0
-199 -206 0
-199 -207 0
-199 -208 0
-199 -209 0
-200 -201 0
-200 -202 0
-200 -203 0
-200 -204 0
-200 -205 0
-200 -206 0
-200 -207 0
-200 -208 0
-200 -209 0
-201 -202 0
-201 -203 0
-201 -204 0
-201 -205 0
-201 -206 0
-201 -207 0
-201 -208 0
-201 -209 0
-202 -203 0
-202 -204 0
-202 -205 0
-202 -206 0
-202 -207 0
-202 -208 0
-202 -209 0
-203 -204 0
-203 -205 0
-203 -206 0
-203 -207 0
-203 -208 0
-203 -209 0
-204 -205 0
-204 -206 0
-204 -207 0
-204 -208 0
-204 -209 0
-205 -206 0
-205 -207 0
-205 -208 0
-205 -209 0
-206 -207 0
-206 -208 0
-206 -209 0
-207 -208 0
-207 -209 0
-208 -209 0
-210 -211 0
-210 -212 0
-210 -213 0
-210 -214 0
-210 -215 0
-210 -216 0
-210 -217 0
-210 -218 0
-210 -219 0
-210 -220 0
-211 -212 0
-211 -213 0
-211 -214 0
-211 -215 0
-211 -216 0
-211 -217 0
-211 -218 0
-211 -219 0
-211 -220 0
-212 -213 0
-212 -214 0
-212 -215 0
-212 -216 0
-212 -217 0
-212 -218 0
-212 -219 0
-212 -220 0
-213 -214 0
-213 -215 0
-213 -216 0
-213 -217 0
-213 -218 0
-213 -219 0
-213 -220 0
-214 -215 0
-214 -216 0
-214 -217 0
-214 -218 0
-214 -219 0
-214 -220 0
-215 -216 0
-215 -217 0
-215 -218 0
-215 -219 0
-215 -220 0
-216 -217 0
-216 -218 0
-216 -219 0
-216 -220 0
-217 -218 0
-217 -219 0
-217 -220 0
-218 -219 0
-218 -220 0
-219 -220 0
-221 -222 0
-221 -223 0
-221 -224 0
-221 -225 0
-221 -226 0
-221 -227 0
-221 -228 0
-221 -229 0
-221 -230 0
-221 -231 0
-222 -223 0
-222 -224 0
-222 -225 0
-222 -226 0
-222 -227 0
-222 -228 0
-222 -229 0
-222 -230 0
-222 -231 0
-223 -224 0
-223 -225 0
-223 -226 0
-223 -227 0
-223 -228 0
-223 -229 0
-223 -230 0
-223 -231 0
-224 -225 0
-224 -226 0
-224 -227 0
-224 -228 0
-224 -229 0
-224 -230 0
-224 -231 0
-225 -226 0
-225 -227 0
-225 -228 0
-225 -229 0
-225 -230 0
-225 -231 0
-226 -227 0
-226 -228 0
-226 -229 0
-226 -230 0
-226 -231 0
-227 -228 0
-227 -229 0
-227 -230 0
-227 -231 0
-228 -229 0
-228 -230 0
-228 -231 0
-229 -230 0
-229 -231 0
-230 -231 0
-232 -233 0
-232 -234 0
-232 -235 0
-232 -236 0
-232 -237 0
-232 -238 0
-232 -239 0
-232 -240 0
-232 -241 0
-232 -242 0
-233 -234 0
-233 -235 0
-233 -236 0
-233 -237 0
-233 -238 0
-233 -239 0
-233 -240 0
-233 -241 0
-233 -242 0
-234 -235 0
-234 -236 0
-234 -237 0
-234 -238 0
-234 -239 0
-234 -240 0
-234 -241 0
-234 -242 0
-235 -236 0
-235 -237 0
-235 -238 0
-235 -239 0
-235 -240 0
-235 -241 0
-235 -242 0
-236 -237 0
-236 -238 0
-236 -239 0
-236 -240 0
-236 -241 0
-236 -242 0
-237 -238 0
-237 -239 0
-237 -240 0
-237 -241 0
-237 -242 0
-238 -239 0
-238 -240 0
-238 -241 0
-238 -242 0
-239 -240 0
-239 -241 0
-239 -242 0
-240 -241 0
-240 -242 0
-241 -242 0
-243 -244 0
-243 -245 0
-243 -246 0
-243 -247 0
-243 -248 0
-243 -249 0
-243 -250 0
-243 -251 0
-243 -252 0
-243 -253 0
-244 -245 0
-244 -246 0
-244 -247 0
-244 -248 0
-244 -249 0
-244 -250 0
-244 -251 0
-244 -252 0
-244 -253 0
-245 -246 0
-245 -247 0
-245 -248 0
-245 -249 0
-245 -250 0
-245 -251 0
-245 -252 0
-245 -253 0
-246 -247 0
-246 -248 0
-246 -249 0
-246 -250 0
-246 -251 0
-246 -252 0
-246 -253 0
-247 -248 0
-247 -249 0
-247 -250 0
-247 -251 0
-247 -252 0
-247 -253 0
-248 -249 0
-248 -250 0
-248 -251 0
-248 -252 0
-248 -253 0
-249 -250 0
-249 -251 0
-249 -252 0
-249 -253 0
-250 -251 0
-250 -252 0
-250 -253 0
-251 -252 0
-251 -253 0
-252 -253 0
-254 -255 0
-254 -256 0
-254 -257 0
-254 -258 0
-254 -259 0
-254 -260 0
-254 -261 0
-254 -262 0
-254 -263 0
-254 -264 0
-255 -256 0
-255 -257 0
-255 -258 0
-255 -259 0
-255 -260 0
-255 -261 0
-255 -262 0
-255 -263 0
-255 -264 0
-256 -257 0
-256 -258 0
-256 -259 0
-256 -260 0
-256 -261 0
-256 -262 0
-256 -263 0
-256 -264 0
-257 -258 0
-257 -259 0
-257 -260 0
-257 -261 0
-257 -262 0
-257 -263 0
-257 -264 0
-258 -259 0
-258 -260 0
-258 -261 0
-258 -262 0
-258 -263 0
-258 -264 0
-259 -260 0
-259 -261 0
-259 -262 0
-259 -263 0
-259 -264 0
-260 -261 0
-260 -262 0
-260 -263 0
-260 -264 0
-261 -262 0
-261 -263 0
-261 -264 0
-262 -263 0
-262 -264 0
-263 -264 0
-265 -266 0
-265 -267 0
-265 -268 0
-265 -269 0
-265 -270 0
-265 -271 0
-265 -272 0
-265 -273 0
-265 -274 0
-265 -275 0
-266 -267 0
-266 -268 0
-266 -269 0
-266 -270 0
-266 -271 0
-266 -272 0
-266 -273 0
-266 -274 0
-266 -275 0
-267 -268 0
-267 -269 0
-267 -270 0
-267 -271 0
-267 -272 0
-267 -273 0
-267 -274 0
-267 -275 0
-268 -269 0
-268 -270 0
-268 -271 0
-268 -272 0
-268 -273 0
-268 -274 0
-268 -275 0
-269 -270 0
-269 -271 0
-269 -272 0
-269 -273 0
-269 -274 0
-269 -275 0
-270 -271 0
-270 -272 0
-270 -273 0
-270 -274 0
-270 -275 0
-271 -272 0
-271 -273 0
-271 -274 0
-271 -275 0
-272 -273 0
-272 -274 0
-272 -275 0
-273 -274 0
-273 -275 0
-274 -275 0
-1 -56 0
-2 -57 0
-3 -58 0
-4 -59 0
-5 -60 0
-6 -61 0
-7 -62 0
-8 -63 0
-9 -64 0
-10 -65 0
-11 -66 0
-1 -177 0
-2 -178 0
-3 -179 0
-4 -180 0
-5 -181 0
-6 -182 0
-7 -183 0
-8 -184 0
-9 -185 0
-10 -186 0
-11 -187 0
-1 -188 0
-2 -189 0
-3 -190 0
-4 -191 0
-5 -192 0
-6 -193 0
-7 -194 0
-8 -195 0
-9 -196 0
-10 -197 0
-11 -198 0
-1 -199 0
-2 -200 0
-3 -201 0
-4 -202 0
-5 -203 0
-6 -204 0
-7 -205 0
-8 -206 0
-9 -207 0
-10 -208 0
-11 -209 0
-1 -210 0
-2 -211 0
-3 -212 0
-4 -213 0
-5 -214 0
-6 -215 0
-7 -216 0
-8 -217 0
-9 -218 0
-10 -219 0
-11 -220 0
-1 -221 0
-2 -222 0
-3 -223 0
-4 -224 0
-5 -225 0
-6 -226 0
-7 -227 0
-8 -228 0
-9 -229 0
-10 -230 0
-11 -231 0
-1 -243 0
-2 -244 0
-3 -245 0
-4 -246 0
-5 -247 0
-6 -248 0
-7 -249 0
-8 -250 0
-9 -251 0
-10 -252 0
-11 -253 0
-1 -265 0
-2 -266 0
-3 -267 0
-4 -268 0
-5 -269 0
-6 -270 0
-7 -271 0
-8 -272 0
-9 -273 0
-10 -274 0
-11 -275 0
-12 -100 0
-13 -101 0
-14 -102 0
-15 -103 0
-16 -104 0
-17 -105 0
-18 -106 0
-19 -107 0
-20 -108 0
-21 -109 0
-22 -110 0
-12 -133 0
-13 -134 0
-14 -135 0
-15 -136 0
-16 -137 0
-17 -138 0
-18 -139 0
-19 -140 0
-20 -141 0
-21 -142 0
-22 -143 0
-12 -177 0
-13 -178 0
-14 -179 0
-15 -180 0
-16 -181 0
-17 -182 0
-18 -183 0
-19 -184 0
-20 -185 0
-21 -186 0
-22 -187 0
-12 -188 0
-13 -189 0
-14 -190 0
-15 -191 0
-16 -192 0
-17 -193 0
-18 -194 0
-19 -195 0
-20 -196 0
-21 -197 0
-22 -198 0
-12 -210 0
-13 -211 0
-14 -212 0
-15 -213 0
-16 -214 0
-17 -215 0
-18 -216 0
-19 -217 0
-20 -218 0
-21 -219 0
-22 -220 0
-12 -221 0
-13 -222 0
-14 -223 0
-15 -224 0
-16 -225 0
-17 -226 0
-18 -227 0
-19 -228 0
-20 -229 0
-21 -230 0
-22 -231 0
-12 -254 0
-13 -255 0
-14 -256 0
-15 -257 0
-16 -258 0
-17 -259 0
-18 -260 0
-19 -261 0
-20 -262 0
-21 -263 0
-22 -264 0
-23 -45 0
-24 -46 0
-25 -47 0
-26 -48 0
-27 -49 0
-28 -50 0
-29 -51 0
-30 -52 0
-31 -53 0
-32 -54 0
-33 -55 0
-23 -78 0
-24 -79 0
-25 -80 0
-26 -81 0
-27 -82 0
-28 -83 0
-29 -84 0
-30 -85 0
-31 -86 0
-32 -87 0
-33 -88 0
-23 -122 0
-24 -123 0
-25 -124 0
-26 -125 0
-27 -126 0
-28 -127 0
-29 -128 0
-30 -129 0
-31 -130 0
-32 -131 0
-33 -132 0
-23 -199 0
-24 -200 0
-25 -201 0
-26 -202 0
-27 -203 0
-28 -204 0
-29 -205 0
-30 -206 0
-31 -207 0
-32 -208 0
-33 -209 0
-23 -221 0
-24 -222 0
-25 -223 0
-26 -224 0
-27 -225 0
-28 -226 0
-29 -227 0
-30 -228 0
-31 -229 0
-32 -230 0
-33 -231 0
-23 -265 0
-24 -266 0
-25 -267 0
-26 -268 0
-27 -269 0
-28 -270 0
-29 -271 0
-30 -272 0
-31 -273 0
-32 -274 0
-33 -275 0
-34 -56 0
-35 -57 0
-36 -58 0
-37 -59 0
-38 -60 0
-39 -61 0
-40 -62 0
-41 -63 0
-42 -64 0
-43 -65 0
-44 -66 0
-34 -67 0
-35 -68 0
-36 -69 0
-37 -70 0
-38 -71 0
-39 -72 0
-40 -73 0
-41 -74 0
-42 -75 0
-43 -76 0
-44 -77 0
-34 -100 0
-35 -101 0
-36 -102 0
-37 -103 0
-38 -104 0
-39 -105 0
-40 -106 0
-41 -107 0
-42 -108 0
-43 -109 0
-44 -110 0
-34 -210 0
-35 -211 0
-36 -212 0
-37 -213 0
-38 -214 0
-39 -215 0
-40 -216 0
-41 -217 0
-42 -218 0
-43 -219 0
-44 -220 0
-34 -254 0
-35 -255 0
-36 -256 0
-37 -257 0
-38 -258 0
-39 -259 0
-40 -260 0
-41 -261 0
-42 -262 0
-43 -263 0
-44 -264 0
-34 -265 0
-35 -266 0
-36 -267 0
-37 -268 0
-38 -269 0
-39 -270 0
-40 -271 0
-41 -272 0
-42 -273 0
-43 -274 0
-44 -275 0
-45 -67 0
-46 -68 0
-47 -69 0
-48 -70 0
-49 -71 0
-50 -72 0
-51 -73 0
-52 -74 0
-53 -75 0
-54 -76 0
-55 -77 0
-45 -133 0
-46 -134 0
-47 -135 0
-48 -136 0
-49 -137 0
-50 -138 0
-51 -139 0
-52 -140 0
-53 -141 0
-54 -142 0
-55 -143 0
-45 -155 0
-46 -156 0
-47 -157 0
-48 -158 0
-49 -159 0
-50 -160 0
-51 -161 0
-52 -162 0
-53 -163 0
-54 -164 0
-55 -165 0
-45 -210 0
-46 -211 0
-47 -212 0
-48 -213 0
-49 -214 0
-50 -215 0
-51 -216 0
-52 -217 0
-53 -218 0
-54 -219 0
-55 -220 0
-45 -243 0
-46 -244 0
-47 -245 0
-48 -246 0
-49 -247 0
-50 -248 0
-51 -249 0
-52 -250 0
-53 -251 0
-54 -252 0
-55 -253 0
-45 -254 0
-46 -255 0
-47 -256 0
-48 -257 0
-49 -258 0
-50 -259 0
-51 -260 0
-52 -261 0
-53 -262 0
-54 -263 0
-55 -264 0
-56 -67 0
-57 -68 0
-58 -69 0
-59 -70 0
-60 -71 0
-61 -72 0
-62 -73 0
-63 -74 0
-64 -75 0
-65 -76 0
-66 -77 0
-56 -111 0
-57 -112 0
-58 -113 0
-59 -114 0
-60 -115 0
-61 -116 0
-62 -117 0
-63 -118 0
-64 -119 0
-65 -120 0
-66 -121 0
-56 -133 0
-57 -134 0
-58 -135 0
-59 -136 0
-60 -137 0
-61 -138 0
-62 -139 0
-63 -140 0
-64 -141 0
-65 -142 0
-66 -143 0
-56 -177 0
-57 -178 0
-58 -179 0
-59 -180 0
-60 -181 0
-61 -182 0
-62 -183 0
-63 -184 0
-64 -185 0
-65 -186 0
-66 -187 0
-56 -210 0
-57 -211 0
-58 -212 0
-59 -213 0
-60 -214 0
-61 -215 0
-62 -216 0
-63 -217 0
-64 -218 0
-65 -219 0
-66 -220 0
-56 -232 0
-57 -233 0
-58 -234 0
-59 -235 0
-60 -236 0
-61 -237 0
-62 -238 0
-63 -239 0
-64 -240 0
-65 -241 0
-66 -242 0
-56 -254 0
-57 -255 0
-58 -256 0
-59 -257 0
-60 -258 0
-61 -259 0
-62 -260 0
-63 -261 0
-64 -262 0
-65 -263 0
-66 -264 0
-56 -265 0
-57 -266 0
-58 -267 0
-59 -268 0
-60 -269 0
-61 -270 0
-62 -271 0
-63 -272 0
-64 -273 0
-65 -274 0
-66 -275 0
-67 -78 0
-68 -79 0
-69 -80 0
-70 -81 0
-71 -82 0
-72 -83 0
-73 -84 0
-74 -85 0
-75 -86 0
-76 -87 0
-77 -88 0
-67 -100 0
-68 -101 0
-69 -102 0
-70 -103 0
-71 -104 0
-72 -105 0
-73 -106 0
-74 -107 0
-75 -108 0
-76 -109 0
-77 -110 0
-67 -166 0
-68 -167 0
-69 -168 0
-70 -169 0
-71 -170 0
-72 -171 0
-73 -172 0
-74 -173 0
-75 -174 0
-76 -175 0
-77 -176 0
-67 -188 0
-68 -189 0
-69 -190 0
-70 -191 0
-71 -192 0
-72 -193 0
-73 -194 0
-74 -195 0
-75 -196 0
-76 -197 0
-77 -198 0
-67 -210 0
-68 -211 0
-69 -212 0
-70 -213 0
-71 -214 0
-72 -215 0
-73 -216 0
-74 -217 0
-75 -218 0
-76 -219 0
-77 -220 0
-67 -232 0
-68 -233 0
-69 -234 0
-70 -235 0
-71 -236 0
-72 -237 0
-73 -238 0
-74 -239 0
-75 -240 0
-76 -241 0
-77 -242 0
-67 -243 0
-68 -244 0
-69 -245 0
-70 -246 0
-71 -247 0
-72 -248 0
-73 -249 0
-74 -250 0
-75 -251 0
-76 -252 0
-77 -253 0
-78 -133 0
-79 -134 0
-80 -135 0
-81 -136 0
-82 -137 0
-83 -138 0
-84 -139 0
-85 -140 0
-86 -141 0
-87 -142 0
-88 -143 0
-78 -199 0
-79 -200 0
-80 -201 0
-81 -202 0
-82 -203 0
-83 -204 0
-84 -205 0
-85 -206 0
-86 -207 0
-87 -208 0
-88 -209 0
-78 -243 0
-79 -244 0
-80 -245 0
-81 -246 0
-82 -247 0
-83 -248 0
-84 -249 0
-85 -250 0
-86 -251 0
-87 -252 0
-88 -253 0
-89 -100 0
-90 -101 0
-91 -102 0
-92 -103 0
-93 -104 0
-94 -105 0
-95 -106 0
-96 -107 0
-97 -108 0
-98 -109 0
-99 -110 0
-89 -188 0
-90 -189 0
-91 -190 0
-92 -191 0
-93 -192 0
-94 -193 0
-95 -194 0
-96 -195 0
-97 -196 0
-98 -197 0
-99 -198 0
-89 -210 0
-90 -211 0
-91 -212 0
-92 -213 0
-93 -214 0
-94 -215 0
-95 -216 0
-96 -217 0
-97 -218 0
-98 -219 0
-99 -220 0
-89 -265 0
-90 -266 0
-91 -267 0
-92 -268 0
-93 -269 0
-94 -270 0
-95 -271 0
-96 -272 0
-97 -273 0
-98 -274 0
-99 -275 0
-100 -188 0
-101 -189 0
-102 -190 0
-103 -191 0
-104 -192 0
-105 -193 0
-106 -194 0
-107 -195 0
-108 -196 0
-109 -197 0
-110 -198 0
-100 -199 0
-101 -200 0
-102 -201 0
-103 -202 0
-104 -203 0
-105 -204 0
-106 -205 0
-107 -206 0
-108 -207 0
-109 -208 0
-110 -209 0
-100 -221 0
-101 -222 0
-102 -223 0
-103 -224 0
-104 -225 0
-105 -226 0
-106 -227 0
-107 -228 0
-108 -229 0
-109 -230 0
-110 -231 0
-100 -265 0
-101 -266 0
-102 -267 0
-103 -268 0
-104 -269 0
-105 -270 0
-106 -271 0
-107 -272 0
-108 -273 0
-109 -274 0
-110 -275 0
-111 -155 0
-112 -156 0
-113 -157 0
-114 -158 0
-115 -159 0
-116 -160 0
-117 -161 0
-118 -162 0
-119 -163 0
-120 -164 0
-121 -165 0
-111 -166 0
-112 -167 0
-113 -168 0
-114 -169 0
-115 -170 0
-116 -171 0
-117 -172 0
-118 -173 0
-119 -174 0
-120 -175 0
-121 -176 0
-111 -188 0
-112 -189 0
-113 -190 0
-114 -191 0
-115 -192 0
-116 -193 0
-117 -194 0
-118 -195 0
-119 -196 0
-120 -197 0
-121 -198 0
-122 -166 0
-123 -167 0
-124 -168 0
-125 -169 0
-126 -170 0
-127 -171 0
-128 -172 0
-129 -173 0
-130 -174 0
-131 -175 0
-132 -176 0
-122 -210 0
-123 -211 0
-124 -212 0
-125 -213 0
-126 -214 0
-127 -215 0
-128 -216 0
-129 -217 0
-130 -218 0
-131 -219 0
-132 -220 0
-122 -265 0
-123 -266 0
-124 -267 0
-125 -268 0
-126 -269 0
-127 -270 0
-128 -271 0
-129 -272 0
-130 -273 0
-131 -274 0
-132 -275 0
-133 -144 0
-134 -145 0
-135 -146 0
-136 -147 0
-137 -148 0
-138 -149 0
-139 -150 0
-140 -151 0
-141 -152 0
-142 -153 0
-143 -154 0
-133 -188 0
-134 -189 0
-135 -190 0
-136 -191 0
-137 -192 0
-138 -193 0
-139 -194 0
-140 -195 0
-141 -196 0
-142 -197 0
-143 -198 0
-133 -232 0
-134 -233 0
-135 -234 0
-136 -235 0
-137 -236 0
-138 -237 0
-139 -238 0
-140 -239 0
-141 -240 0
-142 -241 0
-143 -242 0
-144 -199 0
-145 -200 0
-146 -201 0
-147 -202 0
-148 -203 0
-149 -204 0
-150 -205 0
-151 -206 0
-152 -207 0
-153 -208 0
-154 -209 0
-144 -232 0
-145 -233 0
-146 -234 0
-147 -235 0
-148 -236 0
-149 -237 0
-150 -238 0
-151 -239 0
-152 -240 0
-153 -241 0
-154 -242 0
-144 -254 0
-145 -255 0
-146 -256 0
-147 -257 0
-148 -258 0
-149 -259 0
-150 -260 0
-151 -261 0
-152 -262 0
-153 -263 0
-154 -264 0
-144 -265 0
-145 -266 0
-146 -267 0
-147 -268 0
-148 -269 0
-149 -270 0
-150 -271 0
-151 -272 0
-152 -273 0
-153 -274 0
-154 -275 0
-155 -254 0
-156 -255 0
-157 -256 0
-158 -257 0
-159 -258 0
-160 -259 0
-161 -260 0
-162 -261 0
-163 -262 0
-164 -263 0
-165 -264 0
-166 -177 0
-167 -178 0
-168 -179 0
-169 -180 0
-170 -181 0
-171 -182 0
-172 -183 0
-173 -184 0
-174 -185 0
-175 -186 0
-176 -187 0
-166 -210 0
-167 -211 0
-168 -212 0
-169 -213 0
-170 -214 0
-171 -215 0
-172 -216 0
-173 -217 0
-174 -218 0
-175 -219 0
-176 -220 0
-166 -232 0
-167 -233 0
-168 -234 0
-169 -235 0
-170 -236 0
-171 -237 0
-172 -238 0
-173 -239 0
-174 -240 0
-175 -241 0
-176 -242 0
-177 -188 0
-178 -189 0
-179 -190 0
-180 -191 0
-181 -192 0
-182 -193 0
-183 -194 0
-184 -195 0
-185 -196 0
-186 -197 0
-187 -198 0
-177 -199 0
-178 -200 0
-179 -201 0
-180 -202 0
-181 -203 0
-182 -204 0
-183 -205 0
-184 -206 0
-185 -207 0
-186 -208 0
-187 -209 0
-177 -254 0
-178 -255 0
-179 -256 0
-180 -257 0
-181 -258 0
-182 -259 0
-183 -260 0
-184 -261 0
-185 -262 0
-186 -263 0
-187 -264 0
-188 -199 0
-189 -200 0
-190 -201 0
-191 -202 0
-192 -203 0
-193 -204 0
-194 -205 0
-195 -206 0
-196 -207 0
-197 -208 0
-198 -209 0
-188 -210 0
-189 -211 0
-190 -212 0
-191 -213 0
-192 -214 0
-193 -215 0
-194 -216 0
-195 -217 0
-196 -218 0
-197 -219 0
-198 -220 0
-188 -221 0
-189 -222 0
-190 -223 0
-191 -224 0
-192 -225 0
-193 -226 0
-194 -227 0
-195 -228 0
-196 -229 0
-197 -230 0
-198 -231 0
-188 -254 0
-189 -255 0
-190 -256 0
-191 -257 0
-192 -258 0
-193 -259 0
-194 -260 0
-195 -261 0
-196 -262 0
-197 -263 0
-198 -264 0
-188 -265 0
-189 -266 0
-190 -267 0
-191 -268 0
-192 -269 0
-193 -270 0
-194 -271 0
-195 -272 0
-196 -273 0
-197 -274 0
-198 -275 0
-199 -221 0
-200 -222 0
-201 -223 0
-202 -224 0
-203 -225 0
-204 -226 0
-205 -227 0
-206 -228 0
-207 -229 0
-208 -230 0
-209 -231 0
-199 -243 0
-200 -244 0
-201 -245 0
-202 -246 0
-203 -247 0
-204 -248 0
-205 -249 0
-206 -250 0
-207 -251 0
-208 -252 0
-209 -253 0
-199 -265 0
-200 -266 0
-201 -267 0
-202 -268 0
-203 -269 0
-204 -270 0
-205 -271 0
-206 -272 0
-207 -273 0
-208 -274 0
-209 -275 0
-210 -232 0
-211 -233 0
-212 -234 0
-213 -235 0
-214 -236 0
-215 -237 0
-216 -238 0
-217 -239 0
-218 -240 0
-219 -241 0
-220 -242 0
-243 -265 0
-244 -266 0
-245 -267 0
-246 -268 0
-247 -269 0
-248 -270 0
-249 -271 0
-250 -272 0
-251 -273 0
-252 -274 0
-253 -275 0
-254 -265 0
-255 -266 0
-256 -267 0
-257 -268 0
-258 -269 0
-259 -270 0
-260 -271 0
-261 -272 0
-262 -273 0
-263 -274 0
-264 -275 0
